11
0 32 78 73 12 1 25 8 12 99 64 
57 0 30 83 49 49 5 34 12 8 51 
95 63 0 1 64 54 58 43 66 85 82 
89 82 94 0 1 65 6 21 81 90 15 
12 87 20 25 0 80 85 43 12 34 23 
24 29 26 73 31 0 90 22 38 55 54 
86 65 60 25 47 71 0 22 46 97 56 
95 54 6 93 91 68 100 0 91 25 85 
30 29 45 70 37 23 36 96 0 84 65 
63 23 22 46 20 2 7 95 85 0 46 
82 83 82 40 5 16 70 96 58 37 0 
